p cnf 146 672
1 -93 -77 0
-1 93 -77 0
1 93 -78 0
-1 -93 -78 0
20 -93 -81 0
-20 93 -81 0
20 93 -82 0
-20 -93 -82 0
39 -93 -85 0
-39 93 -85 0
39 93 -86 0
-39 -93 -86 0
58 -93 -89 0
-58 93 -89 0
58 93 -90 0
-58 -93 -90 0
2 -77 0
2 -78 0
77 -77 0
78 -78 0
21 -81 0
21 -82 0
81 -81 0
82 -82 0
40 -85 0
40 -86 0
85 -85 0
86 -86 0
59 -89 0
59 -90 0
89 -89 0
90 -90 0
3 -94 -77 0
-3 94 -77 0
3 94 -78 0
-3 -94 -78 0
22 -94 -81 0
-22 94 -81 0
22 94 -82 0
-22 -94 -82 0
41 -94 -85 0
-41 94 -85 0
41 94 -86 0
-41 -94 -86 0
60 -94 -89 0
-60 94 -89 0
60 94 -90 0
-60 -94 -90 0
4 -95 -77 0
-4 95 -77 0
4 95 -78 0
-4 -95 -78 0
23 -95 -81 0
-23 95 -81 0
23 95 -82 0
-23 -95 -82 0
42 -95 -85 0
-42 95 -85 0
42 95 -86 0
-42 -95 -86 0
61 -95 -89 0
-61 95 -89 0
61 95 -90 0
-61 -95 -90 0
5 -77 0
5 -78 0
77 -77 0
78 -78 0
24 -81 0
24 -82 0
81 -81 0
82 -82 0
43 -85 0
43 -86 0
85 -85 0
86 -86 0
62 -89 0
62 -90 0
89 -89 0
90 -90 0
6 -77 0
6 -78 0
77 -77 0
78 -78 0
25 -81 0
25 -82 0
81 -81 0
82 -82 0
44 -85 0
44 -86 0
85 -85 0
86 -86 0
63 -89 0
63 -90 0
89 -89 0
90 -90 0
7 -96 -77 0
-7 96 -77 0
7 96 -78 0
-7 -96 -78 0
26 -96 -81 0
-26 96 -81 0
26 96 -82 0
-26 -96 -82 0
45 -96 -85 0
-45 96 -85 0
45 96 -86 0
-45 -96 -86 0
64 -96 -89 0
-64 96 -89 0
64 96 -90 0
-64 -96 -90 0
8 -77 0
8 -78 0
77 -77 0
78 -78 0
27 -81 0
27 -82 0
81 -81 0
82 -82 0
46 -85 0
46 -86 0
85 -85 0
86 -86 0
65 -89 0
65 -90 0
89 -89 0
90 -90 0
9 -77 0
9 -78 0
77 -77 0
78 -78 0
28 -81 0
28 -82 0
81 -81 0
82 -82 0
47 -85 0
47 -86 0
85 -85 0
86 -86 0
66 -89 0
66 -90 0
89 -89 0
90 -90 0
10 -77 0
10 -78 0
77 -77 0
78 -78 0
29 -81 0
29 -82 0
81 -81 0
82 -82 0
48 -85 0
48 -86 0
85 -85 0
86 -86 0
67 -89 0
67 -90 0
89 -89 0
90 -90 0
11 -77 0
11 -78 0
77 -77 0
78 -78 0
30 -81 0
30 -82 0
81 -81 0
82 -82 0
49 -85 0
49 -86 0
85 -85 0
86 -86 0
68 -89 0
68 -90 0
89 -89 0
90 -90 0
-12 -77 0
-12 -78 0
77 -77 0
78 -78 0
-31 -81 0
-31 -82 0
81 -81 0
82 -82 0
-50 -85 0
-50 -86 0
85 -85 0
86 -86 0
-69 -89 0
-69 -90 0
89 -89 0
90 -90 0
13 -97 -77 0
-13 97 -77 0
13 97 -78 0
-13 -97 -78 0
32 -97 -81 0
-32 97 -81 0
32 97 -82 0
-32 -97 -82 0
51 -97 -85 0
-51 97 -85 0
51 97 -86 0
-51 -97 -86 0
70 -97 -89 0
-70 97 -89 0
70 97 -90 0
-70 -97 -90 0
14 -98 -77 0
-14 98 -77 0
14 98 -78 0
-14 -98 -78 0
33 -98 -81 0
-33 98 -81 0
33 98 -82 0
-33 -98 -82 0
52 -98 -85 0
-52 98 -85 0
52 98 -86 0
-52 -98 -86 0
71 -98 -89 0
-71 98 -89 0
71 98 -90 0
-71 -98 -90 0
15 -99 -77 0
-15 99 -77 0
15 99 -78 0
-15 -99 -78 0
34 -99 -81 0
-34 99 -81 0
34 99 -82 0
-34 -99 -82 0
53 -99 -85 0
-53 99 -85 0
53 99 -86 0
-53 -99 -86 0
72 -99 -89 0
-72 99 -89 0
72 99 -90 0
-72 -99 -90 0
16 -77 0
16 -78 0
77 -77 0
78 -78 0
35 -81 0
35 -82 0
81 -81 0
82 -82 0
54 -85 0
54 -86 0
85 -85 0
86 -86 0
73 -89 0
73 -90 0
89 -89 0
90 -90 0
17 -77 0
17 -78 0
77 -77 0
78 -78 0
36 -81 0
36 -82 0
81 -81 0
82 -82 0
55 -85 0
55 -86 0
85 -85 0
86 -86 0
74 -89 0
74 -90 0
89 -89 0
90 -90 0
18 -77 0
18 -78 0
77 -77 0
78 -78 0
37 -81 0
37 -82 0
81 -81 0
82 -82 0
56 -85 0
56 -86 0
85 -85 0
86 -86 0
75 -89 0
75 -90 0
89 -89 0
90 -90 0
19 -100 -77 0
-19 100 -77 0
19 100 -78 0
-19 -100 -78 0
38 -100 -81 0
-38 100 -81 0
38 100 -82 0
-38 -100 -82 0
57 -100 -85 0
-57 100 -85 0
57 100 -86 0
-57 -100 -86 0
76 -100 -89 0
-76 100 -89 0
76 100 -90 0
-76 -100 -90 0
-131 77 0
131 -77 0
-132 78 0
131 -78 0
-131 -77 0
-132 -78 0
-135 77 131 0
135 -77 0
135 -131 0
-136 78 132 0
136 -78 0
136 -132 0
-135 -81 0
-136 -82 0
-139 81 135 0
139 -81 0
139 -135 0
-140 82 136 0
140 -82 0
140 -136 0
-139 -85 0
-140 -86 0
-143 85 139 0
143 -85 0
143 -139 0
-144 86 140 0
144 -86 0
144 -140 0
-143 -89 0
-144 -90 0
143 0
144 0
1 -79 0
1 -80 0
79 -79 0
80 -80 0
20 -83 0
20 -84 0
83 -83 0
84 -84 0
39 -87 0
39 -88 0
87 -87 0
88 -88 0
58 -91 0
58 -92 0
91 -91 0
92 -92 0
2 -101 -79 0
-2 101 -79 0
2 101 -80 0
-2 -101 -80 0
21 -101 -83 0
-21 101 -83 0
21 101 -84 0
-21 -101 -84 0
40 -101 -87 0
-40 101 -87 0
40 101 -88 0
-40 -101 -88 0
59 -101 -91 0
-59 101 -91 0
59 101 -92 0
-59 -101 -92 0
3 -79 0
3 -80 0
79 -79 0
80 -80 0
22 -83 0
22 -84 0
83 -83 0
84 -84 0
41 -87 0
41 -88 0
87 -87 0
88 -88 0
60 -91 0
60 -92 0
91 -91 0
92 -92 0
4 -79 0
4 -80 0
79 -79 0
80 -80 0
23 -83 0
23 -84 0
83 -83 0
84 -84 0
42 -87 0
42 -88 0
87 -87 0
88 -88 0
61 -91 0
61 -92 0
91 -91 0
92 -92 0
5 -102 -79 0
-5 102 -79 0
5 102 -80 0
-5 -102 -80 0
24 -102 -83 0
-24 102 -83 0
24 102 -84 0
-24 -102 -84 0
43 -102 -87 0
-43 102 -87 0
43 102 -88 0
-43 -102 -88 0
62 -102 -91 0
-62 102 -91 0
62 102 -92 0
-62 -102 -92 0
6 -103 -79 0
-6 103 -79 0
6 103 -80 0
-6 -103 -80 0
25 -103 -83 0
-25 103 -83 0
25 103 -84 0
-25 -103 -84 0
44 -103 -87 0
-44 103 -87 0
44 103 -88 0
-44 -103 -88 0
63 -103 -91 0
-63 103 -91 0
63 103 -92 0
-63 -103 -92 0
7 -104 -79 0
-7 104 -79 0
7 104 -80 0
-7 -104 -80 0
26 -104 -83 0
-26 104 -83 0
26 104 -84 0
-26 -104 -84 0
45 -104 -87 0
-45 104 -87 0
45 104 -88 0
-45 -104 -88 0
64 -104 -91 0
-64 104 -91 0
64 104 -92 0
-64 -104 -92 0
8 -79 0
8 -80 0
79 -79 0
80 -80 0
27 -83 0
27 -84 0
83 -83 0
84 -84 0
46 -87 0
46 -88 0
87 -87 0
88 -88 0
65 -91 0
65 -92 0
91 -91 0
92 -92 0
9 -105 -79 0
-9 105 -79 0
9 105 -80 0
-9 -105 -80 0
28 -105 -83 0
-28 105 -83 0
28 105 -84 0
-28 -105 -84 0
47 -105 -87 0
-47 105 -87 0
47 105 -88 0
-47 -105 -88 0
66 -105 -91 0
-66 105 -91 0
66 105 -92 0
-66 -105 -92 0
10 -106 -79 0
-10 106 -79 0
10 106 -80 0
-10 -106 -80 0
29 -106 -83 0
-29 106 -83 0
29 106 -84 0
-29 -106 -84 0
48 -106 -87 0
-48 106 -87 0
48 106 -88 0
-48 -106 -88 0
67 -106 -91 0
-67 106 -91 0
67 106 -92 0
-67 -106 -92 0
11 -107 -79 0
-11 107 -79 0
11 107 -80 0
-11 -107 -80 0
30 -107 -83 0
-30 107 -83 0
30 107 -84 0
-30 -107 -84 0
49 -107 -87 0
-49 107 -87 0
49 107 -88 0
-49 -107 -88 0
68 -107 -91 0
-68 107 -91 0
68 107 -92 0
-68 -107 -92 0
12 -108 -79 0
-12 108 -79 0
12 108 -80 0
-12 -108 -80 0
31 -108 -83 0
-31 108 -83 0
31 108 -84 0
-31 -108 -84 0
50 -108 -87 0
-50 108 -87 0
50 108 -88 0
-50 -108 -88 0
69 -108 -91 0
-69 108 -91 0
69 108 -92 0
-69 -108 -92 0
13 -109 -79 0
-13 109 -79 0
13 109 -80 0
-13 -109 -80 0
32 -109 -83 0
-32 109 -83 0
32 109 -84 0
-32 -109 -84 0
51 -109 -87 0
-51 109 -87 0
51 109 -88 0
-51 -109 -88 0
70 -109 -91 0
-70 109 -91 0
70 109 -92 0
-70 -109 -92 0
14 -79 0
14 -80 0
79 -79 0
80 -80 0
33 -83 0
33 -84 0
83 -83 0
84 -84 0
52 -87 0
52 -88 0
87 -87 0
88 -88 0
71 -91 0
71 -92 0
91 -91 0
92 -92 0
15 -110 -79 0
-15 110 -79 0
15 110 -80 0
-15 -110 -80 0
34 -110 -83 0
-34 110 -83 0
34 110 -84 0
-34 -110 -84 0
53 -110 -87 0
-53 110 -87 0
53 110 -88 0
-53 -110 -88 0
72 -110 -91 0
-72 110 -91 0
72 110 -92 0
-72 -110 -92 0
16 -79 0
16 -80 0
79 -79 0
80 -80 0
35 -83 0
35 -84 0
83 -83 0
84 -84 0
54 -87 0
54 -88 0
87 -87 0
88 -88 0
73 -91 0
73 -92 0
91 -91 0
92 -92 0
17 -111 -79 0
-17 111 -79 0
17 111 -80 0
-17 -111 -80 0
36 -111 -83 0
-36 111 -83 0
36 111 -84 0
-36 -111 -84 0
55 -111 -87 0
-55 111 -87 0
55 111 -88 0
-55 -111 -88 0
74 -111 -91 0
-74 111 -91 0
74 111 -92 0
-74 -111 -92 0
18 -79 0
18 -80 0
79 -79 0
80 -80 0
37 -83 0
37 -84 0
83 -83 0
84 -84 0
56 -87 0
56 -88 0
87 -87 0
88 -88 0
75 -91 0
75 -92 0
91 -91 0
92 -92 0
19 -79 0
19 -80 0
79 -79 0
80 -80 0
38 -83 0
38 -84 0
83 -83 0
84 -84 0
57 -87 0
57 -88 0
87 -87 0
88 -88 0
76 -91 0
76 -92 0
91 -91 0
92 -92 0
-133 79 0
133 -79 0
-134 80 0
133 -80 0
-133 -79 0
-134 -80 0
-137 79 133 0
137 -79 0
137 -133 0
-138 80 134 0
138 -80 0
138 -134 0
-137 -83 0
-138 -84 0
-141 83 137 0
141 -83 0
141 -137 0
-142 84 138 0
142 -84 0
142 -138 0
-141 -87 0
-142 -88 0
-145 87 141 0
145 -87 0
145 -141 0
-146 88 142 0
146 -88 0
146 -142 0
-145 -91 0
-146 -92 0
145 0
146 0
